\Problem: Gnome Sort (sorted ordering)
Minimize
  obj: x1 + x2 + x3 + x4 + x5 + x6 + x7 + x8 + x9 + x10
Subject To
  order1: x1 - x2 <= 0
  order2: x2 - x3 <= 0
  order3: x3 - x4 <= 0
  order4: x4 - x5 <= 0
  order5: x5 - x6 <= 0
  order6: x6 - x7 <= 0
  order7: x7 - x8 <= 0
  order8: x8 - x9 <= 0
  order9: x9 - x10 <= 0
Bounds
  0 <= x1 <= 9
  0 <= x2 <= 9
  0 <= x3 <= 9
  0 <= x4 <= 9
  0 <= x5 <= 9
  0 <= x6 <= 9
  0 <= x7 <= 9
  0 <= x8 <= 9
  0 <= x9 <= 9
  0 <= x10 <= 9
End
